WARNING: for repeatability, setting FPU to use double precision
============================[ Problem Statistics ]=============================
|                                                                             |
|  Number of variables:          2547                                         |
|  Number of clauses:           32472                                         |
|  Parse time:                   0.01 s                                       |
|                                                                             |
c ============================[ Search Statistics ]==============================
c | Conflicts |          ORIGINAL         |          LEARNT          | Progress |
c |           |    Vars  Clauses Literals |    Limit  Clauses Lit/Cl |          |
c ===============================================================================
c ===============================================================================
restarts                  : 311
conflicts                 : 63463          (6890 /sec)
decisions                 : 326155         (0.00 % random) (35410 /sec)
propagations              : 15208864       (1651210 /sec)
conflict literals         : 5136745        (13.96 % deleted)

conflicts w/ DIP found    : 46207          (72.81 % of conflicts)
conflicts w/ dangerous DIP: 0              (0.00 % of conflicts)
conflicts w/ DIP-learning : 51             (0.08 % of conflicts)
decisions on ext vars     : 4983           (1.53 % of decisions)
total ext vars            : 11          
tried delete ext vars     : 0           
deleted ext vars          : 0           
max ext vars              : 11          

Memory used               : 33.00 MB
CPU time                  : 9.21074 s
DIP computation time      : 0.481773 s (5.23 % of total time)
ER_sel time               : 0.079914 s
ER_add time               : 6.6e-05 s
ER_delC time              : 0 s
ER_delV time              : 0 s
ER_sub time               : 0.091123 s
ER_stat time              : 0 s

SATISFIABLE
